decision_x1=[0,2];
decision_x2=[0,2];
decision_x3=[0,2];
decision_x4=[0,2];
decision_x5=[0,2];
decision_x6=[0,2];
decision_x7=[0,2];
decision_x8=[0,2];
decision_x9=[0,2];
decision_x10=[0,2];
random_y1=[0,2];
random_y2=[0,2];
constraint_x3_x1=[
0,0,4.4|
0,1,2.2|
0,2,0.9|
1,0,6.3|
1,1,7.2|
1,2,6.5|
2,0,9.7|
2,1,5.2|
2,2,0.83|
];
constraint_x3_x2=[
0,0,1.5|
0,1,10|
0,2,6.3|
1,0,3.5|
1,1,6.2|
1,2,6|
2,0,0.84|
2,1,6.7|
2,2,7.5|
];
constraint_x4_x1=[
0,0,2|
0,1,6.8|
0,2,9.3|
1,0,1.2|
1,1,2.9|
1,2,0.03|
2,0,7.8|
2,1,3.1|
2,2,3.8|
];
constraint_x4_x3=[
0,0,3.3|
0,1,1.7|
0,2,6|
1,0,4.9|
1,1,8.1|
1,2,0.91|
2,0,2.2|
2,1,0.83|
2,2,0.11|
];
constraint_x5_x2=[
0,0,1.6|
0,1,5.9|
0,2,1.4|
1,0,0.44|
1,1,3.3|
1,2,2|
2,0,6.3|
2,1,5.2|
2,2,4.3|
];
constraint_x5_x4=[
0,0,5.6|
0,1,8.6|
0,2,7|
1,0,1.8|
1,1,0.52|
1,2,9.6|
2,0,2.4|
2,1,6.8|
2,2,5.7|
];
constraint_x6_x1=[
0,0,7.8|
0,1,2.6|
0,2,2.1|
1,0,8.5|
1,1,9.2|
1,2,3.4|
2,0,10|
2,1,4.7|
2,2,1.2|
];
constraint_x6_x3=[
0,0,5.5|
0,1,3.6|
0,2,8.5|
1,0,3.2|
1,1,3.5|
1,2,3.6|
2,0,5.1|
2,1,5.1|
2,2,1.8|
];
constraint_x6_x5=[
0,0,7|
0,1,0.13|
0,2,1.4|
1,0,8.7|
1,1,4.1|
1,2,9.9|
2,0,6.6|
2,1,0.48|
2,2,8.5|
];
constraint_x7_x5=[
0,0,6.1|
0,1,8.1|
0,2,5.6|
1,0,1.2|
1,1,7.2|
1,2,1.4|
2,0,8.6|
2,1,0.99|
2,2,0.24|
];
constraint_x8_x1=[
0,0,5.8|
0,1,9.3|
0,2,9.7|
1,0,1.9|
1,1,9.7|
1,2,6.5|
2,0,2.4|
2,1,0.61|
2,2,9.5|
];
constraint_x8_x3=[
0,0,6.6|
0,1,3.1|
0,2,5.9|
1,0,3|
1,1,9.7|
1,2,9.1|
2,0,4.8|
2,1,2.4|
2,2,8.8|
];
constraint_x8_x5=[
0,0,0.45|
0,1,0.56|
0,2,4.5|
1,0,2.3|
1,1,8.8|
1,2,9|
2,0,4|
2,1,1.3|
2,2,9|
];
constraint_x8_x7=[
0,0,4.5|
0,1,6.1|
0,2,2.9|
1,0,7.1|
1,1,9.2|
1,2,1.4|
2,0,9.9|
2,1,3.8|
2,2,5.6|
];
constraint_x9_x1=[
0,0,6.8|
0,1,7.9|
0,2,2|
1,0,0.99|
1,1,2.1|
1,2,8.2|
2,0,5|
2,1,9.4|
2,2,3.9|
];
constraint_x9_x3=[
0,0,0.3|
0,1,0.22|
0,2,6.1|
1,0,1.3|
1,1,9.7|
1,2,3.3|
2,0,4.6|
2,1,1.3|
2,2,4.7|
];
constraint_x9_x6=[
0,0,6.2|
0,1,9.9|
0,2,2.7|
1,0,9|
1,1,6.9|
1,2,8.9|
2,0,0.93|
2,1,6.7|
2,2,7.2|
];
constraint_x10_x1=[
0,0,0.51|
0,1,0.086|
0,2,9.4|
1,0,6.7|
1,1,9.9|
1,2,4.1|
2,0,7.2|
2,1,0.025|
2,2,9|
];
constraint_x10_x2=[
0,0,1.1|
0,1,4.2|
0,2,5.7|
1,0,1.4|
1,1,3.9|
1,2,5.6|
2,0,9.8|
2,1,6.7|
2,2,0.85|
];
constraint_x10_x4=[
0,0,7.1|
0,1,3.7|
0,2,4.9|
1,0,8.2|
1,1,7.7|
1,2,8.4|
2,0,2.6|
2,1,3.1|
2,2,8.6|
];
constraint_x10_x5=[
0,0,8.1|
0,1,7.7|
0,2,9.6|
1,0,6.2|
1,1,4.3|
1,2,9.7|
2,0,6.4|
2,1,9.3|
2,2,6.8|
];
constraint_x10_x7=[
0,0,0.078|
0,1,7.5|
0,2,8.1|
1,0,4.1|
1,1,6.3|
1,2,9.5|
2,0,1.1|
2,1,3.2|
2,2,6.9|
];
constraint_x10_x8=[
0,0,1.7|
0,1,9.9|
0,2,3.1|
1,0,0.062|
1,1,6.5|
1,2,1.1|
2,0,1.7|
2,1,3.8|
2,2,6.4|
];
constraint_x1_y1=[
0,0,0.15|
0,1,9.6|
0,2,5.6|
1,0,6.8|
1,1,2|
1,2,1.1|
2,0,9.2|
2,1,10|
2,2,8.4|
];
constraint_x2_y2=[
0,0,8.1|
0,1,0.22|
0,2,5.6|
1,0,0.36|
1,1,1.3|
1,2,6.2|
2,0,3.1|
2,1,9.9|
2,2,9.4|
];
initial_distribution_y1=[0.34,0.14,0.52];
initial_distribution_y2=[0.45,0.057,0.5];
transition_y1=[
0.36,0.61,0.029|
0.39,0.54,0.07|
0.24,0.39,0.38|
];
transition_y2=[
0.64,0.26,0.096|
0.26,0.47,0.27|
0.21,0.46,0.33|
];
